\* Class_Selection *\
Maximize
OBJ: 3.16090166411 x_0 - 2.99512037603 x_1 - 0.807160643307 x_10
 + 4.36059238829 x_12 + 2.11874843321 x_15 + 2.10477359994 x_16
 + 7.6184332088 x_18 + 0.668903811873 x_19 + 2.05293085154 x_20
 + 4.41064737048 x_21 + 5.35280924695 x_22 + 10.3487087449 x_25
 + 3.40995010372 x_28 + 4.73762453791 x_29 + 6 x_31 - 3.31377455351 x_32
 + 10.6632525789 x_33 + 4.5 x_34 + 6.95390662034 x_35 + 6.1323332628 x_37
 + 4.49180046539 x_39 - 6.63739444892 x_4 + 8.89594993961 x_6
 + 5.5561390209 x_9
Subject To
MaximumUnits: 2 x_0 + 4 x_1 + 3 x_10 + 3 x_12 + 2 x_15 + 3 x_16 + 2 x_18
 + 3 x_19 + 2 x_20 + 3 x_21 + 3 x_22 + 2 x_25 + 3 x_28 + 4 x_29 + 2 x_31
 + 3 x_32 + 2 x_33 + 3 x_34 + 2 x_35 + 3 x_37 + 3 x_39 + 4 x_4 + 2 x_6 + 2 x_9
 <= 15
MinimumUnits: 2 x_0 + 4 x_1 + 3 x_10 + 3 x_12 + 2 x_15 + 3 x_16 + 2 x_18
 + 3 x_19 + 2 x_20 + 3 x_21 + 3 x_22 + 2 x_25 + 3 x_28 + 4 x_29 + 2 x_31
 + 3 x_32 + 2 x_33 + 3 x_34 + 2 x_35 + 3 x_37 + 3 x_39 + 4 x_4 + 2 x_6 + 2 x_9
 >= 7
_C1: x_0 + x_18 <= 1
_C10: x_16 + x_4 <= 1
_C11: x_4 + x_6 <= 1
_C12: x_10 + x_4 <= 1
_C13: x_22 + x_4 <= 1
_C14: x_10 + x_6 <= 1
_C15: x_22 + x_6 <= 1
_C16: x_22 + x_9 <= 1
_C17: x_31 + x_9 <= 1
_C18: x_25 + x_9 <= 1
_C19: x_39 + x_9 <= 1
_C2: x_0 + x_32 <= 1
_C20: x_10 + x_37 <= 1
_C21: x_10 + x_22 <= 1
_C22: x_12 + x_16 <= 1
_C23: x_12 + x_35 <= 1
_C24: x_15 + x_35 <= 1
_C25: x_15 + x_37 <= 1
_C26: x_16 + x_35 <= 1
_C27: x_18 + x_32 <= 1
_C28: x_18 + x_39 <= 1
_C29: x_18 + x_19 <= 1
_C3: x_0 + x_39 <= 1
_C30: x_18 + x_34 <= 1
_C31: x_19 + x_34 <= 1
_C32: x_19 + x_34 <= 1
_C33: x_21 + x_31 <= 1
_C34: x_22 + x_31 <= 1
_C35: x_25 + x_39 <= 1
_C36: x_28 + x_33 <= 1
_C37: x_29 + x_33 <= 1
_C38: x_29 + x_32 <= 1
_C39: x_32 + x_39 <= 1
_C4: x_0 + x_29 <= 1
_C5: x_0 + x_32 <= 1
_C6: x_1 + x_12 <= 1
_C7: x_1 + x_12 <= 1
_C8: x_1 + x_16 <= 1
_C9: x_1 + x_35 <= 1
Binaries
x_0
x_1
x_10
x_12
x_15
x_16
x_18
x_19
x_20
x_21
x_22
x_25
x_28
x_29
x_31
x_32
x_33
x_34
x_35
x_37
x_39
x_4
x_6
x_9
End
